# Example 6
# Restart from last config of Example 5

# set name for this simulation
variable NAME index example6 # name style value

# set log file name
log ${NAME}.log

# To begin simulation from a restart file, uncomment the line below (adjusting
# the file name, if necessary) 
#read_restart ${NAME}.restart.*
read_restart example5.restart.*

# Note: Info like units, pair_style etc are not
# needed since this is all in the restart file

# implement long-range pair modifications
#pair_modify shift yes
pair_modify tail yes

# configure neighbor lists
neighbor 0.3 bin
neigh_modify every 20 delay 0 check no

# configure integrator and thermostats/barostats
fix TEMP all nvt temp 1.7 1.7 0.3 # T1 T2 Tdamp (NH integrator)
timestep 0.003 # The default timestep size is 0.005 for LJ units.

# configure output of atom-specific trajectory data (e.g. coordinates)
dump DUMP all custom 50 ${NAME}.lammpstrj id type x y z ix iy iz vx vy vz

# configure output of system property data
thermo_style custom step temp press pe ke etotal
thermo 10 # output_interval

# run simulation
run 2500 # number_of_steps
write_restart ${NAME}.restart.*

