# Examle 4
# LJ fcc lattice with PBC unwrapped coordinates

# set name for this simulation
variable NAME index example4 # name style value

# set log file name
log ${NAME}.log

# configure and initialize system
units lj
atom_style atomic
pair_style lj/cut 2.5 # style args(=cutoff)
boundary p p p # x y z (p = periodic boundary conditions)
#boundary s s s # x y z (s = shrink wrapped boundary conditions)

lattice fcc 0.8442 # style scale(=reduced_density)
region MYBOX block 0 10 0 10 0 10 # ID style args(=xlo,xhi,ylo,yhi,zlo,zhi)
create_box 1 MYBOX # number_of_atom_types region_ID

create_atoms 1 box # atom_type style args

mass 1 1.0 # atom_type mass
velocity all create 3.0 87287 # group_ID style args(=temp,seed)

# set forcefield parameters
pair_coeff 1 1 1.0 1.0 2.5 # atom_i atom_j args(=epsilon,sigma,cutoff)

# configure neighbor lists
neighbor 0.3 bin
neigh_modify every 20 delay 0 check no

# configure integrator
fix NVE all nve # ID group_ID style
timestep 0.003 # The default timestep size is 0.005 for LJ units.

# configure output of atom-specific trajectory data (e.g. coordinates)
# Here we dump the unwrapped coordinates using xu yu zu
dump DUMP all custom 50 ${NAME}.lammpstrj xu yu zu # dump_ID group_ID style interval file args

# here we dump all atoms using wrapped (PBC) coordinates
#dump DUMP all atom 2 ${NAME}.lammpstrj # dump_ID group_ID style interval file args
#dump_modify DUMP image yes # dump_ID keyword value

# configure output of system property data
thermo_style custom step temp press pe ke etotal
thermo 50 # output_interval

# run simulation
run 10000 # number_of_steps
write_restart ${NAME}.restart.*

