# 3d Lennard-Jones melt in periodic box

# set name for this simulation
variable NAME index melt # name style value

# set log file name
log ${NAME}.log

# To begin simulation from a restart file, uncomment the line below (adjusting
# the file name, if necessary) and comment the section corresponding to
# information now provided by the restart file.

#read_restart ${NAME}.restart.*

# #############################################
# start of information provided by restart file
# (If reading data from restart file, comment this section.)

# configure and initialize system
units lj
atom_style atomic
pair_style lj/cut 2.5 # style args(=cutoff)
boundary p p p # x y z (p = periodic boundary conditions)

lattice fcc 0.8442 # style scale(=reduced_density)
region MYBOX block 0 10 0 10 0 10 # ID style args(=xlo,xhi,ylo,yhi,zlo,zhi)
create_box 1 MYBOX # number_of_atom_types region_ID

create_atoms 1 box # atom_type style args

mass 1 1.0 # atom_type mass
velocity all create 3.0 87287 # group_ID style args(=temp,seed)

# set forcefield parameters
pair_coeff 1 1 1.0 1.0 2.5 # atom_i atom_j args(=epsilon,sigma,cutoff)

# end of information provided by restart file
# ###########################################

# configure neighbor lists
neighbor 0.3 bin
neigh_modify every 20 delay 0 check no

# configure integrator
fix NVE all nve # ID group_ID style
#fix TEMP all temp/rescale 10 1.7 1.7 0.02 1.0 # N T1 T2 window scale
timestep 0.003 # The default timestep size is 0.005 for LJ units.

# configure output of atom-specific trajectory data (e.g. coordinates)
dump DUMP all atom 50 ${NAME}.lammpstrj # ID group_ID style interval file args
#dump_modify DUMP image yes # dump_ID keyword value

# configure output of system property data
thermo_style custom step temp press pe ke etotal
thermo 10 # output_interval

# run simulation
run 2500 # number_of_steps
write_restart ${NAME}.restart.*

